Route #1: 27 1 52 16 35 21 26
Route #2: 47 39 4 42 29 45 41
Route #3: 13 49 33 11 55 20 31 54 34 30 2
Route #4: 43 23 50 22 38 9 12 5 40
Route #5: 46 28 14 44 51 17 8 10 18
Route #6: 19 7 15 37 24 6 53 25
Route #7: 3 36 32 48
Cost 721